language ESSENCE' 1.0
letting lastdx=94
letting cage be [
[32,9,15,9,14,10,14,11,14,0,0],
[14,8,4,0,0, 0,0, 0,0, 0,0],
[32,5,12,5,13,4,13,0,0, 0,0],
[10,14,10,14,9,0,0, 0,0, 0,0],
[5,9,2,0,0, 0,0, 0,0, 0,0],
[2,11,12,0,0, 0,0, 0,0, 0,0],
[26,6,7,6,6,6,5,0,0, 0,0],
[16,3,5,0,0, 0,0, 0,0, 0,0],
[1,9,12,0,0, 0,0, 0,0, 0,0],
[15,16,16,0,0, 0,0, 0,0, 0,0],
[13,14,5,14,4,0,0, 0,0, 0,0],
[14,7,11,0,0, 0,0, 0,0, 0,0],
[15,13,6,12,6,0,0, 0,0, 0,0],
[49,7,10,7,9,7,8,6,8,8,8],
[11,12,5,0,0, 0,0, 0,0, 0,0],
[47,16,14,15,14,15,15,16,15,14,15],
[26,16,12,16,13,15,13,14,13,0,0],
[17,3,10,3,9,4,9,0,0, 0,0],
[15,1,13,0,0, 0,0, 0,0, 0,0],
[44,2,1,1,1,1,2,2,2,3,2],
[15,10,11,10,10,0,0, 0,0, 0,0],
[49,8,2,8,1,9,1,10,1,11,1],
[38,4,4,3,4,3,3,0,0, 0,0],
[40,7,12,7,13,6,13,6,12,0,0],
[31,13,16,14,16,15,16,0,0, 0,0],
[8,1,6,0,0, 0,0, 0,0, 0,0],
[17,13,10,12,10,11,10,0,0, 0,0],
[33,2,15,2,16,1,16,0,0, 0,0],
[19,12,11,11,11,0,0, 0,0, 0,0],
[18,10,8,11,8,11,7,0,0, 0,0],
[4,8,15,8,16,0,0, 0,0, 0,0],
[17,14,7,13,7,0,0, 0,0, 0,0],
[29,9,13,10,13,10,12,0,0, 0,0],
[30,6,15,6,16,5,16,0,0, 0,0],
[16,5,4,0,0, 0,0, 0,0, 0,0],
[29,7,15,7,16,7,14,8,14,0,0],
[48,2,10,2,11,3,11,4,11,4,10],
[9,13,1,0,0, 0,0, 0,0, 0,0],
[6,15,7,0,0, 0,0, 0,0, 0,0],
[37,6,4,6,3,7,3,7,4,7,5],
[2,3,6,0,0, 0,0, 0,0, 0,0],
[5,16,10,0,0, 0,0, 0,0, 0,0],
[17,11,9,12,9,0,0, 0,0, 0,0],
[16,9,7,0,0, 0,0, 0,0, 0,0],
[32,2,14,2,13,2,12,1,12,0,0],
[7,9,6,0,0, 0,0, 0,0, 0,0],
[7,2,4,0,0, 0,0, 0,0, 0,0],
[2,10,7,0,0, 0,0, 0,0, 0,0],
[19,15,5,15,4,0,0, 0,0, 0,0],
[31,13,8,13,9,0,0, 0,0, 0,0],
[22,7,1,7,2,0,0, 0,0, 0,0],
[38,15,12,14,12,13,12,13,11,14,11],
[37,7,7,7,6,8,6,8,7,0,0],
[10,2,5,1,5,0,0, 0,0, 0,0],
[19,4,6,5,6,0,0, 0,0, 0,0],
[16,15,2,0,0, 0,0, 0,0, 0,0],
[15,1,3,1,4,2,3,0,0, 0,0],
[6,10,4,0,0, 0,0, 0,0, 0,0],
[54,2,6,2,7,3,7,3,8,4,8],
[27,13,15,12,15,11,15,0,0, 0,0],
[27,16,11,15,11,15,10,0,0, 0,0],
[16,14,6,15,6,16,6,0,0, 0,0],
[34,15,1,16,1,16,2,16,3,0,0],
[21,4,15,3,15,3,16,4,16,0,0],
[44,16,8,16,7,16,9,15,9,0,0],
[47,3,1,4,1,4,2,4,3,5,3],
[17,4,12,3,12,3,13,0,0, 0,0],
[15,6,10,6,11,5,11,5,10,0,0],
[3,1,7,0,0, 0,0, 0,0, 0,0],
[10,1,9,0,0, 0,0, 0,0, 0,0],
[23,1,10,1,11,0,0, 0,0, 0,0],
[17,1,14,1,15,0,0, 0,0, 0,0],
[10,4,5,5,5,0,0, 0,0, 0,0],
[5,5,1,6,1,0,0, 0,0, 0,0],
[15,5,2,6,2,0,0, 0,0, 0,0],
[17,8,3,9,3,0,0, 0,0, 0,0],
[4,8,5,0,0, 0,0, 0,0, 0,0],
[33,8,11,9,11,9,10,0,0, 0,0],
[17,8,12,8,13,0,0, 0,0, 0,0],
[35,9,4,9,5,10,5,11,5,0,0],
[38,9,16,10,16,10,15,11,16,12,16],
[11,10,2,0,0, 0,0, 0,0, 0,0],
[28,10,3,11,3,11,4,0,0, 0,0],
[23,10,6,11,6,0,0, 0,0, 0,0],
[21,11,2,12,2,12,1,0,0, 0,0],
[16,11,13,0,0, 0,0, 0,0, 0,0],
[18,12,3,13,3,14,3,15,3,0,0],
[8,12,4,0,0, 0,0, 0,0, 0,0],
[16,12,7,12,8,0,0, 0,0, 0,0],
[16,12,12,0,0, 0,0, 0,0, 0,0],
[5,12,13,0,0, 0,0, 0,0, 0,0],
[36,13,2,14,2,14,1,0,0, 0,0],
[17,13,4,13,5,0,0, 0,0, 0,0],
[25,14,8,15,8,0,0, 0,0, 0,0],
[12,16,4,16,5,0,0, 0,0, 0,0]
]
